nNurses = 51;
nHours = 29;
minHours = 10;
maxHours = 19;
maxConsec = 18;
maxPresence = 7;
demand = [21, 23, 21, 17, 17, 18, 22, 19, 18, 13, 17, 22, 20, 25, 24, 21, 19, 19, 24, 29, 27, 26, 22, 27, 30, 30, 34, 33, 28];
